80 8
96 78
7 46
9 79
89 94
66 38
58 44
35 13
69 78
30 7
16 79
60 74
72 91
36 15
59 61
15 68
55 33
5 10
41 6
17 12
100 36
18 55
13 70
82 79
63 3
67 71
80 34
93 55
74 75
79 98
26 90
87 97
1 60
20 20
24 38
5 15
100 30
59 92
46 86
51 87
6 98
19 4
55 24
96 60
85 49
43 49
26 22
13 24
77 28
50 98
27 41
70 23
80 39
38 92
71 62
91 98
97 8
64 74
69 79
4 50
77 15
78 50
52 71
72 70
58 44
84 71
43 11
45 69
11 81
1 94
19 36
56 100
100 56
40 95
67 82
59 87
13 68
45 92
98 20
72 38
29 72
494 525
692 737
536 562
557 594
437 466
707 745
636 667
597 623
